(declare-const X String)
; jar:file:/(([A-Z]:)?/([A-Z 0-9 * ( ) + \- & $ # @ _ . ! ~ /])+)(/[A-Z 0-9 _ ( ) \[ \] - = + _ ~]+\.jar!)
(assert (str.in.re X (re.++ (str.to.re "jar:file:/\x0a") (re.opt (re.++ (re.range "A" "Z") (str.to.re ":"))) (str.to.re "/") (re.+ (re.union (re.range "A" "Z") (str.to.re " ") (re.range "0" "9") (str.to.re "*") (str.to.re "(") (str.to.re ")") (str.to.re "+") (str.to.re "-") (str.to.re "&") (str.to.re "$") (str.to.re "#") (str.to.re "@") (str.to.re "_") (str.to.re ".") (str.to.re "!") (str.to.re "~") (str.to.re "/"))) (str.to.re "/") (re.+ (re.union (re.range "A" "Z") (str.to.re " ") (re.range "0" "9") (str.to.re "_") (str.to.re "(") (str.to.re ")") (str.to.re "[") (str.to.re "]") (re.range " " " ") (str.to.re "=") (str.to.re "+") (str.to.re "~"))) (str.to.re ".jar!"))))
; /^([0-9a-zA-Z]+|[a-zA-Z]:(\\(\w[\w ]*.*))+|\\(\\(\w[\w ]*.*))+)\.[0-9a-zA-Z]{1,3}$/
(assert (not (str.in.re X (re.++ (str.to.re "/") (re.union (re.+ (re.union (re.range "0" "9") (re.range "a" "z") (re.range "A" "Z"))) (re.++ (re.union (re.range "a" "z") (re.range "A" "Z")) (str.to.re ":") (re.+ (re.++ (str.to.re "\x5c") (re.union (re.range "0" "9") (re.range "A" "Z") (re.range "a" "z") (str.to.re "_")) (re.* (re.union (str.to.re " ") (re.range "0" "9") (re.range "A" "Z") (re.range "a" "z") (str.to.re "_"))) (re.* re.allchar)))) (re.++ (str.to.re "\x5c") (re.+ (re.++ (str.to.re "\x5c") (re.union (re.range "0" "9") (re.range "A" "Z") (re.range "a" "z") (str.to.re "_")) (re.* (re.union (str.to.re " ") (re.range "0" "9") (re.range "A" "Z") (re.range "a" "z") (str.to.re "_"))) (re.* re.allchar))))) (str.to.re ".") ((_ re.loop 1 3) (re.union (re.range "0" "9") (re.range "a" "z") (re.range "A" "Z"))) (str.to.re "/\x0a")))))
; ^[0-9]*\/{1}[1-9]{1}[0-9]*$
(assert (not (str.in.re X (re.++ (re.* (re.range "0" "9")) ((_ re.loop 1 1) (str.to.re "/")) ((_ re.loop 1 1) (re.range "1" "9")) (re.* (re.range "0" "9")) (str.to.re "\x0a")))))
; ^(((25[0-5]|2[0-4][0-9]|19[0-1]|19[3-9]|18[0-9]|17[0-1]|17[3-9]|1[3-6][0-9]|12[8-9]|12[0-6]|1[0-1][0-9]|1[1-9]|[2-9][0-9]|[0-9])\.(25[0-5]|2[0-4][0-9]|1[0-9][0-9]|[1-9][0-9]|[0-9]))|(192\.(25[0-5]|2[0-4][0-9]|16[0-7]|169|1[0-5][0-9]|1[7-9][0-9]|[1-9][0-9]|[0-9]))|(172\.(25[0-5]|2[0-4][0-9]|1[0-9][0-9]|1[0-5]|3[2-9]|[4-9][0-9]|[0-9])))\.(25[0-5]|2[0-4][0-9]|1[0-9][0-9]|[1-9][0-9]|[0-9])\.(25[0-5]|2[0-4][0-9]|1[0-9][0-9]|[1-9][0-9]|[0-9])$
(assert (not (str.in.re X (re.++ (re.union (re.++ (re.union (re.++ (str.to.re "25") (re.range "0" "5")) (re.++ (str.to.re "2") (re.range "0" "4") (re.range "0" "9")) (re.++ (str.to.re "19") (re.range "0" "1")) (re.++ (str.to.re "19") (re.range "3" "9")) (re.++ (str.to.re "18") (re.range "0" "9")) (re.++ (str.to.re "17") (re.range "0" "1")) (re.++ (str.to.re "17") (re.range "3" "9")) (re.++ (str.to.re "1") (re.range "3" "6") (re.range "0" "9")) (re.++ (str.to.re "12") (re.range "8" "9")) (re.++ (str.to.re "12") (re.range "0" "6")) (re.++ (str.to.re "1") (re.range "0" "1") (re.range "0" "9")) (re.++ (str.to.re "1") (re.range "1" "9")) (re.++ (re.range "2" "9") (re.range "0" "9")) (re.range "0" "9")) (str.to.re ".") (re.union (re.++ (str.to.re "25") (re.range "0" "5")) (re.++ (str.to.re "2") (re.range "0" "4") (re.range "0" "9")) (re.++ (str.to.re "1") (re.range "0" "9") (re.range "0" "9")) (re.++ (re.range "1" "9") (re.range "0" "9")) (re.range "0" "9"))) (re.++ (str.to.re "192.") (re.union (re.++ (str.to.re "25") (re.range "0" "5")) (re.++ (str.to.re "2") (re.range "0" "4") (re.range "0" "9")) (re.++ (str.to.re "16") (re.range "0" "7")) (str.to.re "169") (re.++ (str.to.re "1") (re.range "0" "5") (re.range "0" "9")) (re.++ (str.to.re "1") (re.range "7" "9") (re.range "0" "9")) (re.++ (re.range "1" "9") (re.range "0" "9")) (re.range "0" "9"))) (re.++ (str.to.re "172.") (re.union (re.++ (str.to.re "25") (re.range "0" "5")) (re.++ (str.to.re "2") (re.range "0" "4") (re.range "0" "9")) (re.++ (str.to.re "1") (re.range "0" "9") (re.range "0" "9")) (re.++ (str.to.re "1") (re.range "0" "5")) (re.++ (str.to.re "3") (re.range "2" "9")) (re.++ (re.range "4" "9") (re.range "0" "9")) (re.range "0" "9")))) (str.to.re ".") (re.union (re.++ (str.to.re "25") (re.range "0" "5")) (re.++ (str.to.re "2") (re.range "0" "4") (re.range "0" "9")) (re.++ (str.to.re "1") (re.range "0" "9") (re.range "0" "9")) (re.++ (re.range "1" "9") (re.range "0" "9")) (re.range "0" "9")) (str.to.re ".") (re.union (re.++ (str.to.re "25") (re.range "0" "5")) (re.++ (str.to.re "2") (re.range "0" "4") (re.range "0" "9")) (re.++ (str.to.re "1") (re.range "0" "9") (re.range "0" "9")) (re.++ (re.range "1" "9") (re.range "0" "9")) (re.range "0" "9")) (str.to.re "\x0a")))))
(check-sat)
